(set-logic QF_BV)
(declare-fun _substvar_114_ () (_ BitVec 31))
(declare-fun _substvar_217_ () Bool)
(declare-fun _substvar_85_ () (_ BitVec 31))
(declare-fun _substvar_121_ () (_ BitVec 31))
(declare-fun _substvar_282_ () (_ BitVec 1))
(declare-fun _substvar_135_ () (_ BitVec 31))
(declare-fun _substvar_171_ () Bool)
(declare-fun _substvar_129_ () (_ BitVec 31))
(assert (and true true true true true true true true true true true true true true true true true true true true true true true true true true true true true true true true true true true true true true true true true true true true true true true true true true true true true true true true true true true true true true true true true true true true true true true true true true true true true true true true true true true true true true true true true true true true true true true true true true true true true true true true true true true true true true true true true true true true true true true true true true true true true true true true true true true true true true true true true true true true true true true true true true true true true true true true true true true true true true true true true true true true true true true true true true true true true true true true true true true true true true true true true true true true true true true true true true true true true true true true true true true true true true true true true true true true true true true true true true true (ite _substvar_171_ (= _substvar_135_ (_ bv0 31)) (= _substvar_135_ (concat (_ bv0 30) _substvar_282_))) (= _substvar_114_ (concat ((_ extract 29 0) _substvar_135_) (bvxor ((_ extract 30 30) _substvar_135_) ((_ extract 27 27) _substvar_135_)))) (ite _substvar_217_ (= _substvar_121_ (_ bv0 31)) (= _substvar_121_ (concat ((_ extract 29 0) _substvar_114_) (_ bv0 1)))) (= _substvar_129_ (concat (_ bv0 30) (bvxor ((_ extract 30 30) _substvar_121_) ((_ extract 27 27) _substvar_121_)))) (= _substvar_85_ (concat ((_ extract 29 0) _substvar_129_) (_ bv0 1))) true true true (= (= (_ bv0 31) _substvar_85_) false)))
(check-sat)
(exit)
